(set-logic QF_S)
(declare-fun var0 () String)
(declare-fun var1 () String)
(declare-fun var2 () String)
(declare-fun var3 () String)
(declare-fun var4 () String)
(assert (= (str.++ ":oX" (str.++ var0 (str.++ var1 (str.++ var2 (str.++ var3 var4))))) (str.++ (str.++ var0 (str.++ var1 (str.++ var2 (str.++ var3 var4)))) "N~c")))
(check-sat)